(set-logic QF_S)
(declare-fun var0 () String)
(assert (RegexIn var0 (RegexConcat (RegexPlus (RegexStar (Str2Reg "000"))) (RegexConcat (RegexStar (RegexPlus (Str2Reg "111"))) (RegexConcat (RegexPlus (RegexStar (Str2Reg "222"))) (RegexConcat (RegexPlus (RegexStar (Str2Reg "33"))) (RegexConcat (RegexPlus (RegexStar (Str2Reg "444"))) (RegexConcat (RegexStar (RegexStar (Str2Reg "555"))) (RegexConcat (RegexPlus (RegexStar (Str2Reg "66"))) (RegexConcat (RegexPlus (RegexUnion (Str2Reg "777") (Str2Reg "88"))) (RegexConcat (RegexPlus (RegexStar (Str2Reg "999"))) (RegexConcat (RegexStar (RegexStar (Str2Reg "aa"))) (RegexConcat (RegexUnion (RegexStar (Str2Reg "bbb")) (RegexStar (Str2Reg "ccc"))) (RegexConcat (RegexStar (RegexStar (Str2Reg "ddd"))) (RegexConcat (RegexUnion (RegexPlus (Str2Reg "ee")) (RegexPlus (Str2Reg "ff"))) (RegexConcat (RegexStar (RegexUnion (Str2Reg "ggg") (Str2Reg "h"))) (RegexConcat (RegexUnion (RegexStar (Str2Reg "ii")) (RegexStar (Str2Reg "jj"))) (RegexConcat (RegexPlus (RegexStar (Str2Reg "kk"))) (RegexConcat (RegexPlus (RegexStar (Str2Reg "lll"))) (RegexConcat (RegexStar (RegexPlus (Str2Reg "m"))) (RegexConcat (RegexPlus (RegexUnion (Str2Reg "nn") (Str2Reg "oo"))) (RegexConcat (RegexPlus (RegexUnion (Str2Reg "p") (Str2Reg "q"))) (RegexConcat (RegexPlus (RegexUnion (Str2Reg "rrr") (Str2Reg "sss"))) (RegexConcat (RegexUnion (RegexStar (Str2Reg "tt")) (RegexStar (Str2Reg "u"))) (RegexConcat (RegexUnion (RegexPlus (Str2Reg "v")) (RegexPlus (Str2Reg "ww"))) (RegexConcat (RegexUnion (RegexUnion (Str2Reg "xx") (Str2Reg "yyy")) (RegexUnion (Str2Reg "zzz") (Str2Reg "A"))) (RegexConcat (RegexUnion (RegexStar (Str2Reg "B")) (RegexStar (Str2Reg "CCC"))) (RegexConcat (RegexUnion (RegexUnion (Str2Reg "DDD") (Str2Reg "E")) (RegexUnion (Str2Reg "F") (Str2Reg "G"))) (RegexConcat (RegexUnion (RegexUnion (Str2Reg "HH") (Str2Reg "III")) (RegexUnion (Str2Reg "JJJ") (Str2Reg "KK"))) (RegexConcat (RegexPlus (RegexUnion (Str2Reg "L") (Str2Reg "MMM"))) (RegexConcat (RegexUnion (RegexPlus (Str2Reg "NNN")) (RegexPlus (Str2Reg "OOO"))) (RegexConcat (RegexStar (RegexStar (Str2Reg "PP"))) (RegexConcat (RegexStar (RegexUnion (Str2Reg "QQQ") (Str2Reg "RR"))) (RegexConcat (RegexUnion (RegexStar (Str2Reg "S")) (RegexStar (Str2Reg "TT"))) (RegexConcat (RegexUnion (RegexUnion (Str2Reg "UU") (Str2Reg "VVV")) (RegexUnion (Str2Reg "W") (Str2Reg "XXX"))) (RegexConcat (RegexPlus (RegexPlus (Str2Reg "YYY"))) (RegexConcat (RegexStar (RegexPlus (Str2Reg "Z"))) (RegexConcat (RegexStar (RegexUnion (Str2Reg "!!") (Str2Reg "\"\"\""))) (RegexConcat (RegexUnion (RegexUnion (Str2Reg "###") (Str2Reg "$$")) (RegexUnion (Str2Reg "%") (Str2Reg "&&&"))) (RegexConcat (RegexStar (RegexPlus (Str2Reg "'''"))) (RegexConcat (RegexPlus (RegexStar (Str2Reg "(("))) (RegexConcat (RegexStar (RegexPlus (Str2Reg ")"))) (RegexConcat (RegexStar (RegexPlus (Str2Reg "*"))) (RegexConcat (RegexStar (RegexPlus (Str2Reg "++"))) (RegexConcat (RegexStar (RegexStar (Str2Reg ",,,"))) (RegexConcat (RegexStar (RegexStar (Str2Reg "-"))) (RegexConcat (RegexUnion (RegexPlus (Str2Reg ".")) (RegexPlus (Str2Reg "///"))) (RegexConcat (RegexStar (RegexUnion (Str2Reg ":") (Str2Reg ";;"))) (RegexConcat (RegexUnion (RegexPlus (Str2Reg "<")) (RegexPlus (Str2Reg "=="))) (RegexConcat (RegexPlus (RegexStar (Str2Reg ">>>"))) (RegexConcat (RegexStar (RegexUnion (Str2Reg "?") (Str2Reg "@@@"))) (RegexConcat (RegexStar (RegexPlus (Str2Reg "["))) (RegexConcat (RegexPlus (RegexUnion (Str2Reg "\\\\\\") (Str2Reg "]"))) (RegexConcat (RegexUnion (RegexUnion (Str2Reg "^") (Str2Reg "__")) (RegexUnion (Str2Reg "```") (Str2Reg "{{{"))) (RegexConcat (RegexPlus (RegexPlus (Str2Reg "|||"))) (RegexConcat (RegexPlus (RegexStar (Str2Reg "}"))) (RegexConcat (RegexPlus (RegexPlus (Str2Reg "~~~"))) (RegexConcat (RegexPlus (RegexPlus (Str2Reg "00"))) (RegexConcat (RegexPlus (RegexUnion (Str2Reg "1") (Str2Reg "22"))) (RegexConcat (RegexUnion (RegexUnion (Str2Reg "33") (Str2Reg "44")) (RegexUnion (Str2Reg "5") (Str2Reg "6"))) (RegexConcat (RegexStar (RegexStar (Str2Reg "77"))) (RegexConcat (RegexPlus (RegexPlus (Str2Reg "88"))) (RegexConcat (RegexStar (RegexPlus (Str2Reg "999"))) (RegexConcat (RegexUnion (RegexUnion (Str2Reg "aa") (Str2Reg "b")) (RegexUnion (Str2Reg "cc") (Str2Reg "dd"))) (RegexConcat (RegexUnion (RegexStar (Str2Reg "eee")) (RegexStar (Str2Reg "fff"))) (RegexConcat (RegexPlus (RegexPlus (Str2Reg "gg"))) (RegexConcat (RegexStar (RegexPlus (Str2Reg "hhh"))) (RegexConcat (RegexPlus (RegexPlus (Str2Reg "iii"))) (RegexConcat (RegexUnion (RegexUnion (Str2Reg "jjj") (Str2Reg "kk")) (RegexUnion (Str2Reg "ll") (Str2Reg "mmm"))) (RegexConcat (RegexUnion (RegexPlus (Str2Reg "n")) (RegexPlus (Str2Reg "o"))) (RegexConcat (RegexUnion (RegexUnion (Str2Reg "ppp") (Str2Reg "qq")) (RegexUnion (Str2Reg "r") (Str2Reg "ss"))) (RegexConcat (RegexUnion (RegexStar (Str2Reg "ttt")) (RegexStar (Str2Reg "u"))) (RegexConcat (RegexPlus (RegexStar (Str2Reg "vv"))) (RegexConcat (RegexUnion (RegexUnion (Str2Reg "w") (Str2Reg "x")) (RegexUnion (Str2Reg "y") (Str2Reg "z"))) (RegexConcat (RegexPlus (RegexPlus (Str2Reg "A"))) (RegexConcat (RegexPlus (RegexUnion (Str2Reg "B") (Str2Reg "CC"))) (RegexConcat (RegexStar (RegexUnion (Str2Reg "D") (Str2Reg "EE"))) (RegexConcat (RegexStar (RegexPlus (Str2Reg "FFF"))) (RegexConcat (RegexStar (RegexStar (Str2Reg "G"))) (RegexConcat (RegexPlus (RegexUnion (Str2Reg "HH") (Str2Reg "II"))) (RegexConcat (RegexStar (RegexPlus (Str2Reg "J"))) (RegexConcat (RegexStar (RegexPlus (Str2Reg "KKK"))) (RegexConcat (RegexUnion (RegexUnion (Str2Reg "L") (Str2Reg "MMM")) (RegexUnion (Str2Reg "NNN") (Str2Reg "OO"))) (RegexConcat (RegexUnion (RegexUnion (Str2Reg "P") (Str2Reg "QQQ")) (RegexUnion (Str2Reg "RR") (Str2Reg "SS"))) (RegexConcat (RegexPlus (RegexStar (Str2Reg "TT"))) (RegexConcat (RegexStar (RegexUnion (Str2Reg "UU") (Str2Reg "VVV"))) (RegexPlus (RegexPlus (Str2Reg "WW")))))))))))))))))))))))))))))))))))))))))))))))))))))))))))))))))))))))))))))))))))))))))
(check-sat)